
n_res = 4;
rcap = [59, 72, 95, 67];
rtype = [1, 1, 2, 2];
n_tasks = 50;
modes =  [{1, 2, 3}, {4, 5, 6}, {7, 8, 9}, {10, 11, 12}, {13, 14, 15}, {16, 17, 18}, {19, 20, 21}, {22, 23, 24}, {25, 26, 27}, {28, 29, 30}, {31, 32, 33}, {34, 35, 36}, {37, 38, 39}, {40, 41, 42}, {43, 44, 45}, {46, 47, 48}, {49, 50, 51}, {52, 53, 54}, {55, 56, 57}, {58, 59, 60}, {61, 62, 63}, {64, 65, 66}, {67, 68, 69}, {70, 71, 72}, {73, 74, 75}, {76, 77, 78}, {79, 80, 81}, {82, 83, 84}, {85, 86, 87}, {88, 89, 90}, {91, 92, 93}, {94, 95, 96}, {97, 98, 99}, {100, 101, 102}, {103, 104, 105}, {106, 107, 108}, {109, 110, 111}, {112, 113, 114}, {115, 116, 117}, {118, 119, 120}, {121, 122, 123}, {124, 125, 126}, {127, 128, 129}, {130, 131, 132}, {133, 134, 135}, {136, 137, 138}, {139, 140, 141}, {142, 143, 144}, {145, 146, 147}, {148, 149, 150}];
succ =  [{48, 32, 28, 24, 19, 18, 17, 8, 2}, {50, 47, 42, 31, 30, 29, 27, 26, 23, 22, 16}, {46, 42, 40, 32, 31, 30, 22, 17}, {46, 45, 42, 41, 27, 22, 11}, {48, 44, 43, 32, 24, 23, 18}, {49, 48, 45, 44, 43, 42, 40, 39, 37, 36, 30, 21}, {49, 46, 40, 39, 31, 30, 22, 21}, {47, 46, 44, 43, 40, 37, 30, 29, 23}, {49, 45, 44, 42, 41, 38, 35, 29, 26}, {48, 47, 42, 41, 40, 39, 38, 32, 31, 29}, {48, 47, 44, 43, 40, 39, 38, 37, 36, 29}, {46, 45, 44, 42, 41, 36, 22}, {45, 42, 39, 36, 34, 30, 22}, {45, 44, 42, 41, 40, 39, 30, 29}, {47, 42, 40, 38, 35, 31, 27}, {46, 44, 43, 40, 39, 37, 36, 35, 34}, {47, 39, 37, 21}, {45, 42, 40, 39, 38, 35, 34}, {46, 42, 40, 38, 37, 36, 34}, {48, 41, 40, 36, 35, 34}, {41, 38, 35, 29}, {43, 38, 37, 35}, {45, 41, 35, 34}, {42, 37, 29}, {39, 35, 29}, {39, 37, 36}, {44, 36}, {46, 36}, {34}, {35}, {34}, {36}, {43}, {}, {}, {}, {}, {}, {}, {}, {}, {}, {}, {}, {}, {}, {}, {}, {}, {}];
n_opt = 150;
dur = [3, 6, 9, 1, 1, 8, 1, 3, 8, 2, 3, 4, 1, 6, 9, 1, 6, 10, 5, 6, 8, 5, 8, 10, 3, 5, 6, 2, 4, 4, 5, 7, 9, 1, 8, 9, 1, 5, 6, 4, 4, 7, 1, 8, 9, 3, 5, 9, 1, 3, 8, 2, 3, 9, 2, 4, 7, 6, 6, 8, 3, 3, 7, 6, 7, 9, 2, 3, 5, 3, 8, 9, 3, 6, 10, 6, 8, 10, 1, 3, 4, 1, 9, 10, 2, 5, 6, 2, 7, 10, 1, 4, 10, 2, 3, 8, 1, 8, 10, 2, 5, 10, 7, 8, 10, 2, 6, 7, 3, 4, 6, 3, 7, 10, 5, 5, 7, 2, 6, 8, 2, 5, 9, 1, 1, 2, 3, 4, 10, 8, 10, 10, 1, 5, 6, 2, 5, 8, 3, 6, 6, 2, 4, 5, 3, 5, 7, 1, 3, 10];
rreq = [|6, 0, 0, 0, 0, 0, 0, 6, 5, 7, 5, 0, 9, 8, 0, 4, 0, 3, 0, 0, 0, 0, 9, 0, 0, 1, 1, 6, 0, 0, 0, 0, 0, 6, 4, 3, 0, 0, 7, 0, 3, 0, 0, 8, 0, 8, 0, 0, 0, 3, 1, 0, 6, 4, 0, 0, 2, 5, 4, 0, 0, 7, 7, 0, 0, 0, 0, 0, 0, 7, 0, 0, 0, 3, 0, 0, 5, 0, 0, 8, 7, 0, 0, 3, 0, 0, 5, 9, 0, 7, 6, 3, 1, 7, 0, 7, 0, 2, 2, 0, 0, 0, 0, 5, 0, 6, 3, 0, 5, 5, 0, 9, 0, 0, 8, 5, 2, 9, 0, 9, 8, 0, 0, 9, 0, 9, 9, 0, 0, 7, 5, 5, 0, 3, 2, 0, 0, 3, 0, 3, 0, 0, 0, 3, 0, 0, 6, 5, 0, 0
 |0, 6, 5, 9, 7, 6, 5, 0, 0, 0, 0, 5, 0, 0, 6, 0, 7, 0, 7, 6, 5, 7, 0, 1, 9, 0, 0, 0, 6, 4, 4, 4, 4, 0, 0, 0, 6, 5, 0, 7, 0, 5, 10, 0, 7, 0, 6, 6, 7, 0, 0, 5, 0, 0, 9, 9, 0, 0, 0, 7, 2, 0, 0, 2, 1, 1, 4, 3, 2, 0, 6, 6, 8, 0, 6, 2, 0, 2, 7, 0, 0, 5, 3, 0, 7, 7, 0, 0, 8, 0, 0, 0, 0, 0, 5, 0, 4, 0, 0, 10, 9, 9, 6, 0, 2, 0, 0, 4, 0, 0, 6, 0, 7, 7, 0, 0, 0, 0, 6, 0, 0, 7, 5, 0, 5, 0, 0, 9, 9, 0, 0, 0, 6, 0, 0, 7, 7, 0, 9, 0, 2, 10, 7, 0, 9, 7, 0, 0, 7, 6
 |3, 3, 3, 0, 4, 0, 5, 5, 5, 9, 6, 4, 0, 9, 9, 0, 4, 0, 8, 0, 2, 7, 6, 4, 0, 0, 0, 6, 2, 0, 0, 0, 0, 0, 9, 0, 0, 3, 0, 5, 5, 5, 7, 5, 3, 0, 5, 4, 0, 4, 0, 9, 5, 4, 5, 3, 1, 7, 0, 5, 3, 0, 0, 6, 4, 2, 0, 2, 2, 0, 0, 0, 0, 0, 0, 6, 0, 0, 0, 0, 7, 0, 0, 1, 7, 5, 4, 0, 0, 0, 7, 7, 7, 9, 0, 0, 0, 4, 2, 3, 2, 1, 0, 0, 3, 0, 0, 0, 5, 3, 0, 0, 0, 9, 0, 6, 5, 3, 0, 2, 0, 0, 8, 0, 0, 0, 4, 0, 0, 10, 4, 0, 9, 0, 0, 3, 0, 1, 0, 4, 0, 0, 4, 1, 9, 7, 4, 4, 0, 0
 |0, 0, 0, 6, 0, 3, 0, 0, 0, 0, 0, 0, 1, 0, 0, 3, 0, 2, 0, 6, 0, 0, 0, 0, 3, 2, 1, 0, 0, 6, 9, 7, 6, 6, 0, 4, 2, 0, 1, 0, 0, 0, 0, 0, 0, 8, 0, 0, 10, 0, 4, 0, 0, 0, 0, 0, 0, 0, 3, 0, 0, 4, 2, 0, 0, 0, 5, 0, 0, 9, 8, 7, 3, 2, 1, 0, 3, 3, 1, 1, 0, 6, 6, 0, 0, 0, 0, 9, 8, 7, 0, 0, 0, 0, 3, 3, 10, 0, 0, 0, 0, 0, 10, 8, 0, 6, 6, 4, 0, 0, 8, 2, 2, 0, 3, 0, 0, 0, 2, 0, 5, 3, 0, 7, 4, 2, 0, 2, 1, 0, 0, 4, 0, 2, 2, 0, 2, 0, 7, 0, 7, 6, 0, 0, 0, 0, 0, 0, 3, 2|];